Minimize
  5 x1 - 2 x2 - 4 x3 - 1 x4
Subject To
  c1: 4 x1 + 3 x2 + 2 x3 + 1 x4 <= 8
  c2: 1 x1 + 0 x2 + 2 x3 + 1 x4 <= 5
  c3: 2 x1 + 3 x2 + 1 x3 + 2 x4 <= 7
Bounds
  x1 >= 0
  x2 >= 0
  x3 >= 0
  x4 >= 0
End
